
Welcome to IBM(R) ILOG(R) CPLEX(R) Interactive Optimizer 22.1.1.0
  with Simplex, Mixed Integer & Barrier Optimizers
5725-A06 5725-A29 5724-Y48 5724-Y49 5724-Y54 5724-Y55 5655-Y21
Copyright IBM Corp. 1988, 2022.  All Rights Reserved.

Type 'help' for a list of available commands.
Type 'help' followed by a command name for more
information on commands.

CPLEX> Selected objective sense:  MINIMIZE
Selected objective  name:  00000000
Selected RHS        name:  RHS1
Selected bound      name:  BOUND
Problem 'ee.mps' read.
Read time = 0.03 sec. (3.14 ticks)
CPLEX> New value for time limit in seconds: 7200
CPLEX> New value for parallel optimization mode: -1
CPLEX> New value for default parallel thread count: 40
CPLEX> New value for mixed integer optimality gap tolerance: 1e-13
CPLEX> Version identifier: 22.1.1.0 | 2022-11-28 | 9160aff4d
CPXPARAM_Threads                                 40
CPXPARAM_Parallel                                -1
CPXPARAM_TimeLimit                               7200
CPXPARAM_MIP_Tolerances_MIPGap                   1e-13
Found incumbent of value 0.000000 after 0.00 sec. (0.31 ticks)
Tried aggregator 2 times.
MIP Presolve eliminated 183 rows and 2745 columns.
MIP Presolve modified 5862 coefficients.
Aggregator did 713 substitutions.
Reduced MIP has 3624 rows, 7744 columns, and 28665 nonzeros.
Reduced MIP has 7744 binaries, 0 generals, 0 SOSs, and 0 indicators.
Presolve time = 0.07 sec. (68.81 ticks)
Probing fixed 138 vars, tightened 0 bounds.
Probing time = 0.07 sec. (39.96 ticks)
Tried aggregator 2 times.
Detecting symmetries...
MIP Presolve eliminated 42 rows and 189 columns.
MIP Presolve modified 13 coefficients.
Aggregator did 47 substitutions.
Reduced MIP has 3535 rows, 7494 columns, and 27778 nonzeros.
Reduced MIP has 7494 binaries, 0 generals, 0 SOSs, and 0 indicators.
Presolve time = 0.07 sec. (75.38 ticks)
Probing fixed 15 vars, tightened 0 bounds.
Probing time = 0.07 sec. (34.75 ticks)
Clique table members: 18111.
MIP emphasis: balance optimality and feasibility.
MIP search method: dynamic search.
Parallel mode: opportunistic, using up to 40 threads.
Root relaxation solution time = 0.11 sec. (92.69 ticks)

        Nodes                                         Cuts/
   Node  Left     Objective  IInf  Best Integer    Best Bound    ItCnt     Gap

*     0+    0                            0.0000  -1.31000e+13              --- 
*     0+    0                      -6.60000e+12  -1.31000e+13            98.48%
      0     0  -1.30900e+13    75  -6.60000e+12  -1.30900e+13     2273   98.33%
*     0+    0                      -1.30900e+13  -1.30900e+13             0.00%
*     0+    0                      -1.30900e+13  -1.30900e+13             0.00%
      0     0  -1.30900e+13   140  -1.30900e+13      Cuts: 92     3438    0.00%
*     0+    0                      -1.30900e+13  -1.30900e+13             0.00%
      0     0  -1.30900e+13   116  -1.30900e+13      Cuts: 89     4307    0.00%
*     0+    0                      -1.30900e+13  -1.30900e+13             0.00%
Detecting symmetries...
*     0+    0                      -1.30900e+13  -1.30900e+13             0.00%

Repeating presolve.
Tried aggregator 2 times.
MIP Presolve eliminated 1836 rows and 4332 columns.
MIP Presolve added 342 rows and 0 columns.
MIP Presolve modified 304 coefficients.
Aggregator did 545 substitutions.
Reduced MIP has 1496 rows, 2585 columns, and 9407 nonzeros.
Reduced MIP has 2585 binaries, 0 generals, 0 SOSs, and 0 indicators.
Presolve time = 0.05 sec. (48.79 ticks)
Probing fixed 12 vars, tightened 0 bounds.
Probing time = 0.03 sec. (31.00 ticks)
Tried aggregator 1 time.
MIP Presolve eliminated 34 rows and 32 columns.
MIP Presolve added 22 rows and 0 columns.
Reduced MIP has 1484 rows, 2553 columns, and 9323 nonzeros.
Reduced MIP has 2553 binaries, 0 generals, 0 SOSs, and 0 indicators.
Presolve time = 0.01 sec. (8.82 ticks)
Probing time = 0.00 sec. (3.63 ticks)
Tried aggregator 1 time.
Detecting symmetries...
Reduced MIP has 1484 rows, 2553 columns, and 9323 nonzeros.
Reduced MIP has 2553 binaries, 0 generals, 0 SOSs, and 0 indicators.
Presolve time = 0.01 sec. (7.87 ticks)
Represolve time = 0.14 sec. (128.23 ticks)
Probing time = 0.00 sec. (3.63 ticks)
Clique table members: 6090.
MIP emphasis: balance optimality and feasibility.
MIP search method: dynamic search.
Parallel mode: opportunistic, using up to 40 threads.
Root relaxation solution time = 0.04 sec. (36.57 ticks)

        Nodes                                         Cuts/
   Node  Left     Objective  IInf  Best Integer    Best Bound    ItCnt     Gap

*     0+    0                      -1.30900e+13  -1.30900e+13             0.00%
      0     0  -1.30900e+13    85  -1.30900e+13  -1.30900e+13     6103    0.00%
      0     0  -1.30900e+13   106  -1.30900e+13      Cuts: 81     6233    0.00%
      0     0  -1.30900e+13   151  -1.30900e+13      Cuts: 45     6460    0.00%
      0     2  -1.30900e+13   141  -1.30900e+13  -1.30900e+13     6460    0.00%
Elapsed time = 2.09 sec. (1418.48 ticks, tree = 0.02 MB, solutions = 8)
*   569    42      integral     0  -1.30900e+13  -1.30900e+13   123751    0.00%
    760    48        cutoff        -1.30900e+13  -1.30900e+13    44314    0.00%
   1789    69  -1.30900e+13   138  -1.30900e+13  -1.30900e+13    73858    0.00%

GUB cover cuts applied:  4
Clique cuts applied:  19
Cover cuts applied:  327
Flow cuts applied:  3
Mixed integer rounding cuts applied:  13
Zero-half cuts applied:  19
Lift and project cuts applied:  29
Gomory fractional cuts applied:  18

Root node processing (before b&c):
  Real time             =    1.81 sec. (1418.16 ticks)
Parallel b&c, 40 threads:
  Real time             =    1.36 sec. (619.74 ticks)
  Sync time (average)   =    0.65 sec.
  Wait time (average)   =    0.00 sec.
                          ------------
Total (root+branch&cut) =    3.16 sec. (2037.90 ticks)

Solution pool: 11 solutions saved.

MIP - Integer optimal solution:  Objective = -1.3089999490e+13
Solution time =    3.23 sec.  Iterations = 198455  Nodes = 1963
Deterministic time = 2037.93 ticks  (630.03 ticks/sec)

CPLEX> Solution 'p12' written to file 'ee.sol'.
CPLEX> 